NAME:  t4
TYPE: ATSP
COMMENT:  4 
DIMENSION:  4
EDGE_WEIGHT_TYPE: EXPLICIT
EDGE_WEIGHT_FORMAT: FULL_MATRIX 
EDGE_WEIGHT_SECTION
    9999   175   9999      2 
       1  9999      5   9999
    9999     3   9999     11
      15    22      5   9999    
    
EOF